/*********************************************
 * OPL 12.6.0.0 Data
 * Author: Adrian Rodriguez Bazaga, Pau Rodriguez Esmerats
 * Creation Date: 06/12/2017 at 23:03:00
 *********************************************/

nNurses=197;
maxConsec=2;
maxPresence=7;
maxHours=5;
minHours=1;
hours=24;
demand= [33 30 57 57 30 57 57 33 40 30 2 8 2 9 6 6 5 3 4 1 24 43 23 38  ];
